words_hard_train/8526.qaiger
aag 35 16 0 1 19
2
4
8
10
14
20
24
26
30
40
46
48
52
56
58
62
70
6 3 5
12 9 11
16 12 15
18 6 16
22 18 21
28 25 27
32 29 31
34 22 33
36 25 30
38 35 37
42 31 41
44 43 25
50 47 49
54 50 53
60 57 59
64 60 63
66 54 64
68 45 67
70 39 69
i0 1 x1[1]
i1 1 x1[2]
i2 1 x1[3]
i3 1 x1[5]
i4 1 x1[0]
i5 1 x1[4]
i6 2 y1[1]
i7 1 x1[6]
i8 2 y1[0]
i9 1 x1[7]
i10 2 y1[6]
i11 2 y1[5]
i12 2 y1[2]
i13 2 y1[7]
i14 2 y1[3]
i15 2 y1[4]
o0 bv[0]
c
simplified
  <=
    or
      abs
        1 x1
      reverse
        2 y1
    << 6
      2 y1
