words_hard_train/8526.qaiger.qdimacs
p cnf 35 58
a 1 2 4 5 7 10 13 20 0
e 3 6 8 9 11 12 14 15 16 17 18 19 21 22 23 24 25 26 27 28 29 30 31 32 33 34 35 0
1 2 3 0
-1 -3 0
-2 -3 0
4 5 6 0
-4 -6 0
-5 -6 0
-6 7 8 0
6 -8 0
-7 -8 0
-3 -8 9 0
3 -9 0
8 -9 0
-9 10 11 0
9 -11 0
-10 -11 0
12 13 14 0
-12 -14 0
-13 -14 0
14 15 16 0
-14 -16 0
-15 -16 0
-11 16 17 0
11 -17 0
-16 -17 0
12 -15 18 0
-12 -18 0
15 -18 0
17 18 19 0
-17 -19 0
-18 -19 0
15 20 21 0
-15 -21 0
-20 -21 0
21 12 22 0
-21 -22 0
-12 -22 0
23 24 25 0
-23 -25 0
-24 -25 0
-25 26 27 0
25 -27 0
-26 -27 0
28 29 30 0
-28 -30 0
-29 -30 0
-30 31 32 0
30 -32 0
-31 -32 0
-27 -32 33 0
27 -33 0
32 -33 0
22 33 34 0
-22 -34 0
-33 -34 0
19 34 35 0
-19 -35 0
-34 -35 0
35 0
